10  5
 3 10  0  3  2 10  1  6  4 15  17 166  10
 0  7  3  6  2 15  1  6  4 15   9 181   5
 3 11  0  7  2  8  1  5  4 14  16 183  10
 3  7  0  6  2 12  1  9  4 12   5 175   5
 3  3  0  8  2  9  1  3  4  9  12 179   5
 0  6  3 10  2  9  1  9  4  9   9 168  10
 3  6  0  9  2 13  1  5  4  8  12 171  10
 0  5  1  9  2 12  3  8  4  8   5 182   5
 1 10  3  4  2 12  0  4  4 11  12 178   5
 1  5  3  6  2  8  0  6  4 15  12 172   5
